S = 4;
start = [|0,0,7,5,0,11,4,0,0,12,1,0,0,9,0,2|
0,9,0,11,12,0,0,0,0,0,0,0,4,0,0,0|
0,0,4,0,5,13,0,0,7,3,2,0,0,0,14,11|
16,0,0,12,3,8,0,0,10,4,0,11,0,0,5,1|
0,4,0,0,0,0,16,0,12,14,0,0,3,0,0,10|
3,5,0,0,0,15,6,0,0,0,0,16,0,0,0,0|
0,0,0,9,11,0,0,2,0,5,0,4,0,0,8,0|
0,0,11,16,0,0,0,12,0,1,0,0,0,6,0,0|
0,2,0,0,0,0,5,0,0,0,0,0,13,4,11,0|
0,0,16,0,0,0,14,13,0,0,12,0,0,15,1,0|
0,14,0,15,0,0,0,0,2,0,0,10,0,5,16,0|
0,13,0,0,0,0,0,0,16,0,4,1,9,0,0,0|
0,0,0,0,0,0,0,0,14,0,0,12,0,0,0,13|
0,12,0,0,0,1,11,0,6,0,0,3,5,0,0,0|
0,16,15,0,0,3,12,14,0,0,5,0,0,2,0,0|
0,0,5,14,16,2,0,7,0,0,0,9,1,8,0,0|];